(set-info :original "/var/folders/xz/sgqbj6yn0yv_1mpy6_jqympm0000gn/T/sea-v1lcOH/str_concat_len.pp.ms.o.bc")
(set-info :authors "SeaHorn v.0.1.0-rc3")
(declare-rel verifier.error (Bool Bool Bool ))
(declare-rel main@entry (Int ))
(declare-rel main@_bb (Int Int Int (Array Int Int) Int ))
(declare-rel main@_bb9 (Int Int Int Int (Array Int Int) Int ))
(declare-rel main@_bb11 (Int Int Int (Array Int Int) Int ))
(declare-rel main@_bb14 (Int Int Int Int (Array Int Int) Int ))
(declare-rel main@_bb16 (Int Int Int (Array Int Int) Int ))
(declare-rel main@_bb18 (Int Int (Array Int Int) Int Int ))
(declare-rel main@_bb20 (Int Int Int (Array Int Int) ))
(declare-rel main@verifier.error.split ())
(declare-var main@%_5_0 Int )
(declare-var main@%_6_0 Int )
(declare-var main@%_7_0 Int )
(declare-var main@%_13_0 Int )
(declare-var main@%_14_0 Int )
(declare-var main@%_15_0 Int )
(declare-var main@%_58_0 Bool )
(declare-var main@%_59_0 Int )
(declare-var main@%_60_0 Bool )
(declare-var main@%_53_0 Int )
(declare-var main@%_54_0 Int )
(declare-var main@%_55_0 Bool )
(declare-var main@%_46_0 Int )
(declare-var main@%_47_0 Int )
(declare-var main@%_48_0 Bool )
(declare-var main@%_40_0 Int )
(declare-var main@%_41_0 Int )
(declare-var main@%_42_0 Bool )
(declare-var main@%_38_0 Int )
(declare-var main@%_33_0 Int )
(declare-var main@%_34_0 Int )
(declare-var main@%_35_0 Int )
(declare-var main@%_29_0 Int )
(declare-var main@%_30_0 Int )
(declare-var main@%_31_0 Bool )
(declare-var main@%_23_0 Int )
(declare-var main@%_24_0 Int )
(declare-var main@%_25_0 Int )
(declare-var main@%_19_0 Int )
(declare-var main@%_20_0 Int )
(declare-var main@%_21_0 Bool )
(declare-var main@%_17_0 Int )
(declare-var main@%_11_0 Bool )
(declare-var main@%_9_0 Int )
(declare-var main@%_3_0 Bool )
(declare-var main@%_1_0 Int )
(declare-var @__VERIFIER_nondet_char_0 Int )
(declare-var main@entry_0 Bool )
(declare-var main@%sm7_0 (Array Int Int) )
(declare-var main@%_0_0 Int )
(declare-var main@%.sub.i_0 Int )
(declare-var main@_bb_0 Bool )
(declare-var main@%shadow.mem.0.0_0 (Array Int Int) )
(declare-var main@%.0.i.i_0 Int )
(declare-var main@%shadow.mem.0.0_1 (Array Int Int) )
(declare-var main@%.0.i.i_1 Int )
(declare-var main@_bb8_0 Bool )
(declare-var main@%sm_0 (Array Int Int) )
(declare-var main@%_8_0 Int )
(declare-var main@_bb_1 Bool )
(declare-var main@%shadow.mem.0.0_2 (Array Int Int) )
(declare-var main@%.0.i.i_2 Int )
(declare-var main@init.exit.i_0 Bool )
(declare-var main@%sm1_0 (Array Int Int) )
(declare-var main@%.sub1.i_0 Int )
(declare-var main@_bb9_0 Bool )
(declare-var main@%shadow.mem.0.1_0 (Array Int Int) )
(declare-var main@%.0.i3.i_0 Int )
(declare-var main@%shadow.mem.0.1_1 (Array Int Int) )
(declare-var main@%.0.i3.i_1 Int )
(declare-var main@_bb10_0 Bool )
(declare-var main@%sm2_0 (Array Int Int) )
(declare-var main@%_16_0 Int )
(declare-var main@_bb9_1 Bool )
(declare-var main@%shadow.mem.0.1_2 (Array Int Int) )
(declare-var main@%.0.i3.i_2 Int )
(declare-var main@init.exit4.i_0 Bool )
(declare-var main@%sm3_0 (Array Int Int) )
(declare-var main@%.sub2.i_0 Int )
(declare-var main@_bb11_0 Bool )
(declare-var main@%shadow.mem.0.2_0 (Array Int Int) )
(declare-var main@%.01.i.i_0 Int )
(declare-var main@%shadow.mem.0.2_1 (Array Int Int) )
(declare-var main@%.01.i.i_1 Int )
(declare-var main@_bb12_0 Bool )
(declare-var main@%sm4_0 (Array Int Int) )
(declare-var main@%_26_0 Int )
(declare-var main@_bb11_1 Bool )
(declare-var main@%shadow.mem.0.2_2 (Array Int Int) )
(declare-var main@%.01.i.i_2 Int )
(declare-var main@_bb13_0 Bool )
(declare-var main@_bb14_0 Bool )
(declare-var main@%shadow.mem.0.3_0 (Array Int Int) )
(declare-var main@%.1.i.i_0 Int )
(declare-var main@%.0.i5.i_0 Int )
(declare-var main@%shadow.mem.0.3_1 (Array Int Int) )
(declare-var main@%.1.i.i_1 Int )
(declare-var main@%.0.i5.i_1 Int )
(declare-var main@_bb15_0 Bool )
(declare-var main@%sm5_0 (Array Int Int) )
(declare-var main@%_36_0 Int )
(declare-var main@%_37_0 Int )
(declare-var main@_bb14_1 Bool )
(declare-var main@%shadow.mem.0.3_2 (Array Int Int) )
(declare-var main@%.1.i.i_2 Int )
(declare-var main@%.0.i5.i_2 Int )
(declare-var main@concat.exit.i_0 Bool )
(declare-var main@%sm6_0 (Array Int Int) )
(declare-var main@_bb16_0 Bool )
(declare-var main@%.0.i6.i_0 Int )
(declare-var main@%.0.i6.i_1 Int )
(declare-var main@_bb17_0 Bool )
(declare-var main@%_44_0 Int )
(declare-var main@_bb16_1 Bool )
(declare-var main@%.0.i6.i_2 Int )
(declare-var main@len.exit.i_0 Bool )
(declare-var main@_bb18_0 Bool )
(declare-var main@%.0.i7.i_0 Int )
(declare-var main@%.0.i7.i_1 Int )
(declare-var main@_bb19_0 Bool )
(declare-var main@%_50_0 Int )
(declare-var main@_bb18_1 Bool )
(declare-var main@%.0.i7.i_2 Int )
(declare-var main@len.exit8.i_0 Bool )
(declare-var main@%_51_0 Int )
(declare-var main@_bb20_0 Bool )
(declare-var main@%.0.i9.i_0 Int )
(declare-var main@%.0.i9.i_1 Int )
(declare-var main@_bb21_0 Bool )
(declare-var main@%_57_0 Int )
(declare-var main@_bb20_1 Bool )
(declare-var main@%.0.i9.i_2 Int )
(declare-var main@len.exit10.i_0 Bool )
(declare-var main@_bb22_0 Bool )
(declare-var main@verifier.error_0 Bool )
(declare-var main@verifier.error.split_0 Bool )
(rule (verifier.error false false false))
(rule (verifier.error false true true))
(rule (verifier.error true false true))
(rule (verifier.error true true true))
(rule (main@entry @__VERIFIER_nondet_char_0))
(rule (let ((a!1 (and (main@entry @__VERIFIER_nondet_char_0)
                true
                (> main@%_0_0 0)
                (= main@%_1_0 main@%_0_0)
                (= main@%.sub.i_0 (+ main@%_0_0 (* 0 0) (* 0 1)))
                (or (<= main@%_0_0 0) (> main@%.sub.i_0 0))
                (=> main@_bb_0 (and main@_bb_0 main@entry_0))
                (=> (and main@_bb_0 main@entry_0)
                    (= main@%shadow.mem.0.0_0 main@%sm7_0))
                (=> (and main@_bb_0 main@entry_0) (= main@%.0.i.i_0 0))
                (=> (and main@_bb_0 main@entry_0)
                    (= main@%shadow.mem.0.0_1 main@%shadow.mem.0.0_0))
                (=> (and main@_bb_0 main@entry_0)
                    (= main@%.0.i.i_1 main@%.0.i.i_0))
                main@_bb_0)))
  (=> a!1
      (main@_bb @__VERIFIER_nondet_char_0
                main@%.sub.i_0
                main@%.0.i.i_1
                main@%shadow.mem.0.0_1
                main@%_0_0))))
(rule (let ((a!1 (=> main@_bb8_0
               (= main@%_7_0 (+ main@%.sub.i_0 (* main@%.0.i.i_0 1))))))
(let ((a!2 (and (main@_bb @__VERIFIER_nondet_char_0
                          main@%.sub.i_0
                          main@%.0.i.i_0
                          main@%shadow.mem.0.0_0
                          main@%_0_0)
                true
                (= main@%_3_0 (< main@%.0.i.i_0 (- 1)))
                (=> main@_bb8_0 (and main@_bb8_0 main@_bb_0))
                (=> (and main@_bb8_0 main@_bb_0) main@%_3_0)
                (=> main@_bb8_0 (= main@%_5_0 @__VERIFIER_nondet_char_0))
                a!1
                (=> main@_bb8_0 (or (<= main@%.sub.i_0 0) (> main@%_7_0 0)))
                (=> main@_bb8_0 (> main@%.sub.i_0 0))
                (=> main@_bb8_0
                    (= main@%sm_0
                       (store main@%shadow.mem.0.0_0 main@%_7_0 main@%_6_0)))
                (=> main@_bb8_0 (= main@%_8_0 (+ main@%.0.i.i_0 1)))
                (=> main@_bb_1 (and main@_bb_1 main@_bb8_0))
                (=> (and main@_bb_1 main@_bb8_0)
                    (= main@%shadow.mem.0.0_1 main@%sm_0))
                (=> (and main@_bb_1 main@_bb8_0) (= main@%.0.i.i_1 main@%_8_0))
                (=> (and main@_bb_1 main@_bb8_0)
                    (= main@%shadow.mem.0.0_2 main@%shadow.mem.0.0_1))
                (=> (and main@_bb_1 main@_bb8_0)
                    (= main@%.0.i.i_2 main@%.0.i.i_1))
                main@_bb_1)))
  (=> a!2
      (main@_bb @__VERIFIER_nondet_char_0
                main@%.sub.i_0
                main@%.0.i.i_2
                main@%shadow.mem.0.0_2
                main@%_0_0)))))
(rule (let ((a!1 (=> main@init.exit.i_0 (= main@%_9_0 (+ main@%.sub.i_0 (* (- 1) 1)))))
      (a!2 (=> main@init.exit.i_0
               (= main@%.sub1.i_0 (+ main@%_0_0 (* 0 0) (* 0 1))))))
(let ((a!3 (and (main@_bb @__VERIFIER_nondet_char_0
                          main@%.sub.i_0
                          main@%.0.i.i_0
                          main@%shadow.mem.0.0_0
                          main@%_0_0)
                true
                (= main@%_3_0 (< main@%.0.i.i_0 (- 1)))
                (=> main@init.exit.i_0 (and main@init.exit.i_0 main@_bb_0))
                (=> (and main@init.exit.i_0 main@_bb_0) (not main@%_3_0))
                a!1
                (=> main@init.exit.i_0
                    (or (<= main@%.sub.i_0 0) (> main@%_9_0 0)))
                (=> main@init.exit.i_0 (> main@%.sub.i_0 0))
                (=> main@init.exit.i_0
                    (= main@%sm1_0 (store main@%shadow.mem.0.0_0 main@%_9_0 0)))
                a!2
                (=> main@init.exit.i_0
                    (or (<= main@%_0_0 0) (> main@%.sub1.i_0 0)))
                (=> main@_bb9_0 (and main@_bb9_0 main@init.exit.i_0))
                (=> (and main@_bb9_0 main@init.exit.i_0)
                    (= main@%shadow.mem.0.1_0 main@%sm1_0))
                (=> (and main@_bb9_0 main@init.exit.i_0) (= main@%.0.i3.i_0 0))
                (=> (and main@_bb9_0 main@init.exit.i_0)
                    (= main@%shadow.mem.0.1_1 main@%shadow.mem.0.1_0))
                (=> (and main@_bb9_0 main@init.exit.i_0)
                    (= main@%.0.i3.i_1 main@%.0.i3.i_0))
                main@_bb9_0)))
  (=> a!3
      (main@_bb9 @__VERIFIER_nondet_char_0
                 main@%.sub.i_0
                 main@%.sub1.i_0
                 main@%.0.i3.i_1
                 main@%shadow.mem.0.1_1
                 main@%_0_0)))))
(rule (let ((a!1 (=> main@_bb10_0
               (= main@%_15_0 (+ main@%.sub1.i_0 (* main@%.0.i3.i_0 1))))))
(let ((a!2 (and (main@_bb9 @__VERIFIER_nondet_char_0
                           main@%.sub.i_0
                           main@%.sub1.i_0
                           main@%.0.i3.i_0
                           main@%shadow.mem.0.1_0
                           main@%_0_0)
                true
                (= main@%_11_0 (< main@%.0.i3.i_0 (- 1)))
                (=> main@_bb10_0 (and main@_bb10_0 main@_bb9_0))
                (=> (and main@_bb10_0 main@_bb9_0) main@%_11_0)
                (=> main@_bb10_0 (= main@%_13_0 @__VERIFIER_nondet_char_0))
                a!1
                (=> main@_bb10_0 (or (<= main@%.sub1.i_0 0) (> main@%_15_0 0)))
                (=> main@_bb10_0 (> main@%.sub1.i_0 0))
                (=> main@_bb10_0
                    (= main@%sm2_0
                       (store main@%shadow.mem.0.1_0 main@%_15_0 main@%_14_0)))
                (=> main@_bb10_0 (= main@%_16_0 (+ main@%.0.i3.i_0 1)))
                (=> main@_bb9_1 (and main@_bb9_1 main@_bb10_0))
                (=> (and main@_bb9_1 main@_bb10_0)
                    (= main@%shadow.mem.0.1_1 main@%sm2_0))
                (=> (and main@_bb9_1 main@_bb10_0)
                    (= main@%.0.i3.i_1 main@%_16_0))
                (=> (and main@_bb9_1 main@_bb10_0)
                    (= main@%shadow.mem.0.1_2 main@%shadow.mem.0.1_1))
                (=> (and main@_bb9_1 main@_bb10_0)
                    (= main@%.0.i3.i_2 main@%.0.i3.i_1))
                main@_bb9_1)))
  (=> a!2
      (main@_bb9 @__VERIFIER_nondet_char_0
                 main@%.sub.i_0
                 main@%.sub1.i_0
                 main@%.0.i3.i_2
                 main@%shadow.mem.0.1_2
                 main@%_0_0)))))
(rule (let ((a!1 (=> main@init.exit4.i_0
               (= main@%_17_0 (+ main@%.sub1.i_0 (* (- 1) 1)))))
      (a!2 (=> main@init.exit4.i_0
               (= main@%.sub2.i_0 (+ main@%_0_0 (* 0 0) (* 0 1))))))
(let ((a!3 (and (main@_bb9 @__VERIFIER_nondet_char_0
                           main@%.sub.i_0
                           main@%.sub1.i_0
                           main@%.0.i3.i_0
                           main@%shadow.mem.0.1_0
                           main@%_0_0)
                true
                (= main@%_11_0 (< main@%.0.i3.i_0 (- 1)))
                (=> main@init.exit4.i_0 (and main@init.exit4.i_0 main@_bb9_0))
                (=> (and main@init.exit4.i_0 main@_bb9_0) (not main@%_11_0))
                a!1
                (=> main@init.exit4.i_0
                    (or (<= main@%.sub1.i_0 0) (> main@%_17_0 0)))
                (=> main@init.exit4.i_0 (> main@%.sub1.i_0 0))
                (=> main@init.exit4.i_0
                    (= main@%sm3_0 (store main@%shadow.mem.0.1_0 main@%_17_0 0)))
                a!2
                (=> main@init.exit4.i_0
                    (or (<= main@%_0_0 0) (> main@%.sub2.i_0 0)))
                (=> main@_bb11_0 (and main@_bb11_0 main@init.exit4.i_0))
                (=> (and main@_bb11_0 main@init.exit4.i_0)
                    (= main@%shadow.mem.0.2_0 main@%sm3_0))
                (=> (and main@_bb11_0 main@init.exit4.i_0)
                    (= main@%.01.i.i_0 0))
                (=> (and main@_bb11_0 main@init.exit4.i_0)
                    (= main@%shadow.mem.0.2_1 main@%shadow.mem.0.2_0))
                (=> (and main@_bb11_0 main@init.exit4.i_0)
                    (= main@%.01.i.i_1 main@%.01.i.i_0))
                main@_bb11_0)))
  (=> a!3
      (main@_bb11 main@%.sub.i_0
                  main@%.sub1.i_0
                  main@%.sub2.i_0
                  main@%shadow.mem.0.2_1
                  main@%.01.i.i_1)))))
(rule (let ((a!1 (=> main@_bb12_0
               (= main@%_23_0 (+ main@%.sub.i_0 (* main@%.01.i.i_0 1)))))
      (a!2 (=> main@_bb12_0
               (= main@%_25_0 (+ main@%.sub2.i_0 (* main@%.01.i.i_0 1))))))
(let ((a!3 (and (main@_bb11 main@%.sub.i_0
                            main@%.sub1.i_0
                            main@%.sub2.i_0
                            main@%shadow.mem.0.2_0
                            main@%.01.i.i_0)
                true
                (= main@%_19_0 (+ main@%.sub.i_0 (* main@%.01.i.i_0 1)))
                (or (<= main@%.sub.i_0 0) (> main@%_19_0 0))
                (> main@%.sub.i_0 0)
                (= main@%_20_0 (select main@%shadow.mem.0.2_0 main@%_19_0))
                (= main@%_21_0 (= main@%_20_0 0))
                (=> main@_bb12_0 (and main@_bb12_0 main@_bb11_0))
                (=> (and main@_bb12_0 main@_bb11_0) (not main@%_21_0))
                a!1
                (=> main@_bb12_0 (or (<= main@%.sub.i_0 0) (> main@%_23_0 0)))
                (=> main@_bb12_0 (> main@%.sub.i_0 0))
                (=> main@_bb12_0
                    (= main@%_24_0 (select main@%shadow.mem.0.2_0 main@%_23_0)))
                a!2
                (=> main@_bb12_0 (or (<= main@%.sub2.i_0 0) (> main@%_25_0 0)))
                (=> main@_bb12_0 (> main@%.sub2.i_0 0))
                (=> main@_bb12_0
                    (= main@%sm4_0
                       (store main@%shadow.mem.0.2_0 main@%_25_0 main@%_24_0)))
                (=> main@_bb12_0 (= main@%_26_0 (+ main@%.01.i.i_0 1)))
                (=> main@_bb11_1 (and main@_bb11_1 main@_bb12_0))
                (=> (and main@_bb11_1 main@_bb12_0)
                    (= main@%shadow.mem.0.2_1 main@%sm4_0))
                (=> (and main@_bb11_1 main@_bb12_0)
                    (= main@%.01.i.i_1 main@%_26_0))
                (=> (and main@_bb11_1 main@_bb12_0)
                    (= main@%shadow.mem.0.2_2 main@%shadow.mem.0.2_1))
                (=> (and main@_bb11_1 main@_bb12_0)
                    (= main@%.01.i.i_2 main@%.01.i.i_1))
                main@_bb11_1)))
  (=> a!3
      (main@_bb11 main@%.sub.i_0
                  main@%.sub1.i_0
                  main@%.sub2.i_0
                  main@%shadow.mem.0.2_2
                  main@%.01.i.i_2)))))
(rule (let ((a!1 (and (main@_bb11 main@%.sub.i_0
                            main@%.sub1.i_0
                            main@%.sub2.i_0
                            main@%shadow.mem.0.2_0
                            main@%.01.i.i_0)
                true
                (= main@%_19_0 (+ main@%.sub.i_0 (* main@%.01.i.i_0 1)))
                (or (<= main@%.sub.i_0 0) (> main@%_19_0 0))
                (> main@%.sub.i_0 0)
                (= main@%_20_0 (select main@%shadow.mem.0.2_0 main@%_19_0))
                (= main@%_21_0 (= main@%_20_0 0))
                (=> main@_bb13_0 (and main@_bb13_0 main@_bb11_0))
                (=> (and main@_bb13_0 main@_bb11_0) main@%_21_0)
                (=> main@_bb14_0 (and main@_bb14_0 main@_bb13_0))
                (=> (and main@_bb14_0 main@_bb13_0)
                    (= main@%shadow.mem.0.3_0 main@%shadow.mem.0.2_0))
                (=> (and main@_bb14_0 main@_bb13_0) (= main@%.1.i.i_0 0))
                (=> (and main@_bb14_0 main@_bb13_0)
                    (= main@%.0.i5.i_0 main@%.01.i.i_0))
                (=> (and main@_bb14_0 main@_bb13_0)
                    (= main@%shadow.mem.0.3_1 main@%shadow.mem.0.3_0))
                (=> (and main@_bb14_0 main@_bb13_0)
                    (= main@%.1.i.i_1 main@%.1.i.i_0))
                (=> (and main@_bb14_0 main@_bb13_0)
                    (= main@%.0.i5.i_1 main@%.0.i5.i_0))
                main@_bb14_0)))
  (=> a!1
      (main@_bb14 main@%.sub.i_0
                  main@%.sub1.i_0
                  main@%.sub2.i_0
                  main@%.0.i5.i_1
                  main@%shadow.mem.0.3_1
                  main@%.1.i.i_1))))
(rule (let ((a!1 (=> main@_bb15_0
               (= main@%_33_0 (+ main@%.sub1.i_0 (* main@%.1.i.i_0 1)))))
      (a!2 (=> main@_bb15_0
               (= main@%_35_0 (+ main@%.sub2.i_0 (* main@%.0.i5.i_0 1))))))
(let ((a!3 (and (main@_bb14 main@%.sub.i_0
                            main@%.sub1.i_0
                            main@%.sub2.i_0
                            main@%.0.i5.i_0
                            main@%shadow.mem.0.3_0
                            main@%.1.i.i_0)
                true
                (= main@%_29_0 (+ main@%.sub1.i_0 (* main@%.1.i.i_0 1)))
                (or (<= main@%.sub1.i_0 0) (> main@%_29_0 0))
                (> main@%.sub1.i_0 0)
                (= main@%_30_0 (select main@%shadow.mem.0.3_0 main@%_29_0))
                (= main@%_31_0 (= main@%_30_0 0))
                (=> main@_bb15_0 (and main@_bb15_0 main@_bb14_0))
                (=> (and main@_bb15_0 main@_bb14_0) (not main@%_31_0))
                a!1
                (=> main@_bb15_0 (or (<= main@%.sub1.i_0 0) (> main@%_33_0 0)))
                (=> main@_bb15_0 (> main@%.sub1.i_0 0))
                (=> main@_bb15_0
                    (= main@%_34_0 (select main@%shadow.mem.0.3_0 main@%_33_0)))
                a!2
                (=> main@_bb15_0 (or (<= main@%.sub2.i_0 0) (> main@%_35_0 0)))
                (=> main@_bb15_0 (> main@%.sub2.i_0 0))
                (=> main@_bb15_0
                    (= main@%sm5_0
                       (store main@%shadow.mem.0.3_0 main@%_35_0 main@%_34_0)))
                (=> main@_bb15_0 (= main@%_36_0 (+ main@%.1.i.i_0 1)))
                (=> main@_bb15_0 (= main@%_37_0 (+ main@%.0.i5.i_0 1)))
                (=> main@_bb14_1 (and main@_bb14_1 main@_bb15_0))
                (=> (and main@_bb14_1 main@_bb15_0)
                    (= main@%shadow.mem.0.3_1 main@%sm5_0))
                (=> (and main@_bb14_1 main@_bb15_0)
                    (= main@%.1.i.i_1 main@%_36_0))
                (=> (and main@_bb14_1 main@_bb15_0)
                    (= main@%.0.i5.i_1 main@%_37_0))
                (=> (and main@_bb14_1 main@_bb15_0)
                    (= main@%shadow.mem.0.3_2 main@%shadow.mem.0.3_1))
                (=> (and main@_bb14_1 main@_bb15_0)
                    (= main@%.1.i.i_2 main@%.1.i.i_1))
                (=> (and main@_bb14_1 main@_bb15_0)
                    (= main@%.0.i5.i_2 main@%.0.i5.i_1))
                main@_bb14_1)))
  (=> a!3
      (main@_bb14 main@%.sub.i_0
                  main@%.sub1.i_0
                  main@%.sub2.i_0
                  main@%.0.i5.i_2
                  main@%shadow.mem.0.3_2
                  main@%.1.i.i_2)))))
(rule (let ((a!1 (=> main@concat.exit.i_0
               (= main@%_38_0 (+ main@%.sub2.i_0 (* main@%.0.i5.i_0 1))))))
(let ((a!2 (and (main@_bb14 main@%.sub.i_0
                            main@%.sub1.i_0
                            main@%.sub2.i_0
                            main@%.0.i5.i_0
                            main@%shadow.mem.0.3_0
                            main@%.1.i.i_0)
                true
                (= main@%_29_0 (+ main@%.sub1.i_0 (* main@%.1.i.i_0 1)))
                (or (<= main@%.sub1.i_0 0) (> main@%_29_0 0))
                (> main@%.sub1.i_0 0)
                (= main@%_30_0 (select main@%shadow.mem.0.3_0 main@%_29_0))
                (= main@%_31_0 (= main@%_30_0 0))
                (=> main@concat.exit.i_0
                    (and main@concat.exit.i_0 main@_bb14_0))
                (=> (and main@concat.exit.i_0 main@_bb14_0) main@%_31_0)
                a!1
                (=> main@concat.exit.i_0
                    (or (<= main@%.sub2.i_0 0) (> main@%_38_0 0)))
                (=> main@concat.exit.i_0 (> main@%.sub2.i_0 0))
                (=> main@concat.exit.i_0
                    (= main@%sm6_0 (store main@%shadow.mem.0.3_0 main@%_38_0 0)))
                (=> main@_bb16_0 (and main@_bb16_0 main@concat.exit.i_0))
                (=> (and main@_bb16_0 main@concat.exit.i_0)
                    (= main@%.0.i6.i_0 0))
                (=> (and main@_bb16_0 main@concat.exit.i_0)
                    (= main@%.0.i6.i_1 main@%.0.i6.i_0))
                main@_bb16_0)))
  (=> a!2
      (main@_bb16 main@%.sub.i_0
                  main@%.sub1.i_0
                  main@%.sub2.i_0
                  main@%sm6_0
                  main@%.0.i6.i_1)))))
(rule (let ((a!1 (and (main@_bb16 main@%.sub.i_0
                            main@%.sub1.i_0
                            main@%.sub2.i_0
                            main@%sm6_0
                            main@%.0.i6.i_0)
                true
                (= main@%_40_0 (+ main@%.sub.i_0 (* main@%.0.i6.i_0 1)))
                (or (<= main@%.sub.i_0 0) (> main@%_40_0 0))
                (> main@%.sub.i_0 0)
                (= main@%_41_0 (select main@%sm6_0 main@%_40_0))
                (= main@%_42_0 (= main@%_41_0 0))
                (=> main@_bb17_0 (and main@_bb17_0 main@_bb16_0))
                (=> (and main@_bb17_0 main@_bb16_0) (not main@%_42_0))
                (=> main@_bb17_0 (= main@%_44_0 (+ main@%.0.i6.i_0 1)))
                (=> main@_bb16_1 (and main@_bb16_1 main@_bb17_0))
                (=> (and main@_bb16_1 main@_bb17_0)
                    (= main@%.0.i6.i_1 main@%_44_0))
                (=> (and main@_bb16_1 main@_bb17_0)
                    (= main@%.0.i6.i_2 main@%.0.i6.i_1))
                main@_bb16_1)))
  (=> a!1
      (main@_bb16 main@%.sub.i_0
                  main@%.sub1.i_0
                  main@%.sub2.i_0
                  main@%sm6_0
                  main@%.0.i6.i_2))))
(rule (let ((a!1 (and (main@_bb16 main@%.sub.i_0
                            main@%.sub1.i_0
                            main@%.sub2.i_0
                            main@%sm6_0
                            main@%.0.i6.i_0)
                true
                (= main@%_40_0 (+ main@%.sub.i_0 (* main@%.0.i6.i_0 1)))
                (or (<= main@%.sub.i_0 0) (> main@%_40_0 0))
                (> main@%.sub.i_0 0)
                (= main@%_41_0 (select main@%sm6_0 main@%_40_0))
                (= main@%_42_0 (= main@%_41_0 0))
                (=> main@len.exit.i_0 (and main@len.exit.i_0 main@_bb16_0))
                (=> (and main@len.exit.i_0 main@_bb16_0) main@%_42_0)
                (=> main@_bb18_0 (and main@_bb18_0 main@len.exit.i_0))
                (=> (and main@_bb18_0 main@len.exit.i_0) (= main@%.0.i7.i_0 0))
                (=> (and main@_bb18_0 main@len.exit.i_0)
                    (= main@%.0.i7.i_1 main@%.0.i7.i_0))
                main@_bb18_0)))
  (=> a!1
      (main@_bb18 main@%.sub1.i_0
                  main@%.sub2.i_0
                  main@%sm6_0
                  main@%.0.i6.i_0
                  main@%.0.i7.i_1))))
(rule (let ((a!1 (and (main@_bb18 main@%.sub1.i_0
                            main@%.sub2.i_0
                            main@%sm6_0
                            main@%.0.i6.i_0
                            main@%.0.i7.i_0)
                true
                (= main@%_46_0 (+ main@%.sub1.i_0 (* main@%.0.i7.i_0 1)))
                (or (<= main@%.sub1.i_0 0) (> main@%_46_0 0))
                (> main@%.sub1.i_0 0)
                (= main@%_47_0 (select main@%sm6_0 main@%_46_0))
                (= main@%_48_0 (= main@%_47_0 0))
                (=> main@_bb19_0 (and main@_bb19_0 main@_bb18_0))
                (=> (and main@_bb19_0 main@_bb18_0) (not main@%_48_0))
                (=> main@_bb19_0 (= main@%_50_0 (+ main@%.0.i7.i_0 1)))
                (=> main@_bb18_1 (and main@_bb18_1 main@_bb19_0))
                (=> (and main@_bb18_1 main@_bb19_0)
                    (= main@%.0.i7.i_1 main@%_50_0))
                (=> (and main@_bb18_1 main@_bb19_0)
                    (= main@%.0.i7.i_2 main@%.0.i7.i_1))
                main@_bb18_1)))
  (=> a!1
      (main@_bb18 main@%.sub1.i_0
                  main@%.sub2.i_0
                  main@%sm6_0
                  main@%.0.i6.i_0
                  main@%.0.i7.i_2))))
(rule (let ((a!1 (and (main@_bb18 main@%.sub1.i_0
                            main@%.sub2.i_0
                            main@%sm6_0
                            main@%.0.i6.i_0
                            main@%.0.i7.i_0)
                true
                (= main@%_46_0 (+ main@%.sub1.i_0 (* main@%.0.i7.i_0 1)))
                (or (<= main@%.sub1.i_0 0) (> main@%_46_0 0))
                (> main@%.sub1.i_0 0)
                (= main@%_47_0 (select main@%sm6_0 main@%_46_0))
                (= main@%_48_0 (= main@%_47_0 0))
                (=> main@len.exit8.i_0 (and main@len.exit8.i_0 main@_bb18_0))
                (=> (and main@len.exit8.i_0 main@_bb18_0) main@%_48_0)
                (=> main@len.exit8.i_0
                    (= main@%_51_0 (+ main@%.0.i6.i_0 main@%.0.i7.i_0)))
                (=> main@_bb20_0 (and main@_bb20_0 main@len.exit8.i_0))
                (=> (and main@_bb20_0 main@len.exit8.i_0) (= main@%.0.i9.i_0 0))
                (=> (and main@_bb20_0 main@len.exit8.i_0)
                    (= main@%.0.i9.i_1 main@%.0.i9.i_0))
                main@_bb20_0)))
  (=> a!1 (main@_bb20 main@%_51_0 main@%.0.i9.i_1 main@%.sub2.i_0 main@%sm6_0))))
(rule (let ((a!1 (and (main@_bb20 main@%_51_0
                            main@%.0.i9.i_0
                            main@%.sub2.i_0
                            main@%sm6_0)
                true
                (= main@%_53_0 (+ main@%.sub2.i_0 (* main@%.0.i9.i_0 1)))
                (or (<= main@%.sub2.i_0 0) (> main@%_53_0 0))
                (> main@%.sub2.i_0 0)
                (= main@%_54_0 (select main@%sm6_0 main@%_53_0))
                (= main@%_55_0 (= main@%_54_0 0))
                (=> main@_bb21_0 (and main@_bb21_0 main@_bb20_0))
                (=> (and main@_bb21_0 main@_bb20_0) (not main@%_55_0))
                (=> main@_bb21_0 (= main@%_57_0 (+ main@%.0.i9.i_0 1)))
                (=> main@_bb20_1 (and main@_bb20_1 main@_bb21_0))
                (=> (and main@_bb20_1 main@_bb21_0)
                    (= main@%.0.i9.i_1 main@%_57_0))
                (=> (and main@_bb20_1 main@_bb21_0)
                    (= main@%.0.i9.i_2 main@%.0.i9.i_1))
                main@_bb20_1)))
  (=> a!1 (main@_bb20 main@%_51_0 main@%.0.i9.i_2 main@%.sub2.i_0 main@%sm6_0))))
(rule (let ((a!1 (and (main@_bb20 main@%_51_0
                            main@%.0.i9.i_0
                            main@%.sub2.i_0
                            main@%sm6_0)
                true
                (= main@%_53_0 (+ main@%.sub2.i_0 (* main@%.0.i9.i_0 1)))
                (or (<= main@%.sub2.i_0 0) (> main@%_53_0 0))
                (> main@%.sub2.i_0 0)
                (= main@%_54_0 (select main@%sm6_0 main@%_53_0))
                (= main@%_55_0 (= main@%_54_0 0))
                (=> main@len.exit10.i_0 (and main@len.exit10.i_0 main@_bb20_0))
                (=> (and main@len.exit10.i_0 main@_bb20_0) main@%_55_0)
                (=> main@len.exit10.i_0
                    (= main@%_58_0 (= main@%_51_0 main@%.0.i9.i_0)))
                (=> main@len.exit10.i_0 (= main@%_59_0 (ite main@%_58_0 1 0)))
                (=> main@len.exit10.i_0 (= main@%_60_0 (= main@%_59_0 0)))
                (=> main@len.exit10.i_0 main@%_60_0)
                (=> main@_bb22_0 (and main@_bb22_0 main@len.exit10.i_0))
                (=> main@verifier.error_0
                    (and main@verifier.error_0 main@_bb22_0))
                (=> main@verifier.error.split_0
                    (and main@verifier.error.split_0 main@verifier.error_0))
                main@verifier.error.split_0)))
  (=> a!1 main@verifier.error.split)))
(query main@verifier.error.split)

